Route #1: 1 40 29 25 34 15 26 30 1 
Route #2: 1 1 20 16 21 3 41 38 43 23 1 
Route #3: 1 35 18 39 4 8 31 22 9 1 
Route #4: 1 12 17 2 14 36 6 1 
Route #5: 1 13 33 24 5 32 37 10 11 1 
Route #6: 1 42 27 7 28 19 1 

Cost 1531.28
Time 0.3584


 * Another infos *

 Iterations: 44 Time: 0.3584 sec - 0.0060 min - 0.0001 horas
0.0000 h 0.0060 min
Problem dimension: 44
